
Gurobi 6.5.0 (linux64) logging started Sun Mar 13 00:32:20 2016


Gurobi 6.5.0 (linux64) logging started Sun Mar 13 00:33:03 2016


Gurobi 6.5.0 (linux64) logging started Sun Mar 13 00:33:17 2016

Optimize a model with 1 rows, 3 columns and 3 nonzeros
Coefficient statistics:
  Matrix range    [2e+00, 4e+00]
  Objective range [1e+00, 3e+00]
  Bounds range    [0e+00, 0e+00]
  RHS range       [9e+00, 9e+00]
Presolve removed 1 rows and 3 columns
Presolve time: 0.05s
Presolve: All rows and columns removed
Iteration    Objective       Primal Inf.    Dual Inf.      Time
       0    2.2500000e+00   0.000000e+00   0.000000e+00      0s

Solved in 0 iterations and 0.07 seconds
Optimal objective  2.250000000e+00
